RT is False
Default write of storage_offers_DA.csv just to have a file (but constraint should be inactive)
Reading model...
...model read.
creating competitive generators file...
...competitive generators recorded.
Loading data...
.. day-ahead data read.
Compiling instance...
...instance created.
Creating Offer Mitigation (model will solve as dispatch if TRUE)...
...storage offer mitigation file created
Converting model to MPEC...
...converted
NOTE: initial MIP solve with only storage competitive to get feasible solution
Solving...

Welcome to IBM(R) ILOG(R) CPLEX(R) Interactive Optimizer 12.9.0.0
  with Simplex, Mixed Integer & Barrier Optimizers
5725-A06 5725-A29 5724-Y48 5724-Y49 5724-Y54 5724-Y55 5655-Y21
Copyright IBM Corp. 1988, 2019.  All Rights Reserved.

Type 'help' for a list of available commands.
Type 'help' followed by a command name for more
information on commands.

CPLEX> Logfile 'cplex.log' closed.
Logfile 'C:\Users\llavin\Desktop\test715\logs\tmp6suzhnu2.cplex.log' open.
CPLEX> New value for parallel optimization mode: -1
CPLEX> New value for mixed integer optimality gap tolerance: 0.001
CPLEX> New value for deterministic time limit in ticks: 100000
CPLEX> Problem 'C:\Users\llavin\Desktop\test715\logs\tmp_3haxwid.pyomo.lp' read.
Read time = 0.25 sec. (13.80 ticks)
CPLEX> Problem name         : C:\Users\llavin\Desktop\test715\logs\tmp_3haxwid.pyomo.lp
Objective sense      : Maximize
Variables            :   53320  [Nneg: 1,  Box: 21805,  Free: 4416,
                                 Binary: 27098]
Objective nonzeros   :    8970
Linear constraints   :  122164  [Less: 40983,  Greater: 58612,  Equal: 22569]
  Nonzeros           :  287247
  RHS nonzeros       :   66947

Variables            : Min LB: -5000.000        Max UB: 1000000.       
Objective nonzeros   : Min   : 0.1000000        Max   : 795.1000       
Linear constraints   :
  Nonzeros           : Min   : 0.1000000        Max   : 1000000.       
  RHS nonzeros       : Min   : 0.1000000        Max   : 1000000.       
CPLEX> CPXPARAM_Parallel                                -1
CPXPARAM_DetTimeLimit                            100000
CPXPARAM_MIP_Tolerances_MIPGap                   0.001
Tried aggregator 3 times.
MIP Presolve eliminated 88324 rows and 19153 columns.
MIP Presolve added 3337 rows and 0 columns.
MIP Presolve modified 24472 coefficients.
Aggregator did 12841 substitutions.
Reduced MIP has 24336 rows, 20744 columns, and 66998 nonzeros.
Reduced MIP has 8198 binaries, 0 generals, 0 SOSs, and 0 indicators.
Presolve time = 0.28 sec. (165.44 ticks)
Probing fixed 416 vars, tightened 5766 bounds.
Probing time = 0.06 sec. (18.64 ticks)
Tried aggregator 2 times.
MIP Presolve eliminated 929 rows and 835 columns.
MIP Presolve modified 2985 coefficients.
Aggregator did 46 substitutions.
Reduced MIP has 23361 rows, 19863 columns, and 64162 nonzeros.
Reduced MIP has 7781 binaries, 0 generals, 0 SOSs, and 0 indicators.
Presolve time = 0.11 sec. (89.43 ticks)
Probing fixed 0 vars, tightened 230 bounds.
Probing time = 0.13 sec. (22.76 ticks)
Clique table members: 42020.
MIP emphasis: balance optimality and feasibility.
MIP search method: dynamic search.
Parallel mode: opportunistic, using up to 32 threads.
Root relaxation solution time = 0.38 sec. (579.01 ticks)

        Nodes                                         Cuts/
   Node  Left     Objective  IInf  Best Integer    Best Bound    ItCnt     Gap

      0     0     4005.9746    82                   4005.9746     5522         
*     0+    0                         4005.9746     4005.9746             0.00%
      0     0        cutoff           4005.9746     4005.9746     5522    0.00%
Elapsed time = 1.48 sec. (1135.86 ticks, tree = 0.01 MB, solutions = 1)

Root node processing (before b&c):
  Real time             =    1.50 sec. (1137.77 ticks)
Parallel b&c, 32 threads:
  Real time             =    0.00 sec. (0.00 ticks)
  Sync time (average)   =    0.00 sec.
  Wait time (average)   =    0.00 sec.
                          ------------
Total (root+branch&cut) =    1.50 sec. (1137.77 ticks)

Solution pool: 1 solution saved.

MIP - Integer optimal solution:  Objective =  4.0059745710e+03
Solution time =    1.55 sec.  Iterations = 5522  Nodes = 0
Deterministic time = 1137.92 ticks  (735.57 ticks/sec)

CPLEX> Incumbent solution written to file 'C:\Users\llavin\Desktop\test715\logs\tmpubdrgbqb.cplex.sol'.
CPLEX> NOTE: no warmstart specified for MIP iteration, default behavior is true
NOTE: resolving with all competitive generators using storage-only solution to warmstart
Solving...

Welcome to IBM(R) ILOG(R) CPLEX(R) Interactive Optimizer 12.9.0.0
  with Simplex, Mixed Integer & Barrier Optimizers
5725-A06 5725-A29 5724-Y48 5724-Y49 5724-Y54 5724-Y55 5655-Y21
Copyright IBM Corp. 1988, 2019.  All Rights Reserved.

Type 'help' for a list of available commands.
Type 'help' followed by a command name for more
information on commands.

CPLEX> Logfile 'cplex.log' closed.
Logfile 'C:\Users\llavin\Desktop\test715\logs\tmp1g7a5bav.cplex.log' open.
CPLEX> New value for parallel optimization mode: -1
CPLEX> New value for mixed integer optimality gap tolerance: 0.001
CPLEX> New value for deterministic time limit in ticks: 100000
CPLEX> Problem 'C:\Users\llavin\Desktop\test715\logs\tmpd2vt5n69.pyomo.lp' read.
Read time = 0.22 sec. (13.82 ticks)
CPLEX> MIP start file 'C:\Users\llavin\Desktop\test715\logs\tmpwm3bu1pd.cplex.mst' read.
CPLEX> Problem name         : C:\Users\llavin\Desktop\test715\logs\tmpd2vt5n69.pyomo.lp
Objective sense      : Maximize
Variables            :   54040  [Nneg: 1,  Box: 22525,  Free: 4416,
                                 Binary: 27098]
Objective nonzeros   :    9666
Linear constraints   :  122164  [Less: 40983,  Greater: 58612,  Equal: 22569]
  Nonzeros           :  287247
  RHS nonzeros       :   66947

Variables            : Min LB: -5000.000        Max UB: 1000000.       
Objective nonzeros   : Min   : 0.1000000        Max   : 795.1000       
Linear constraints   :
  Nonzeros           : Min   : 0.1000000        Max   : 1000000.       
  RHS nonzeros       : Min   : 0.1000000        Max   : 1000000.       
CPLEX> CPXPARAM_Parallel                                -1
CPXPARAM_DetTimeLimit                            100000
CPXPARAM_MIP_Tolerances_MIPGap                   0.001
Warning:  No solution found from 1 MIP starts.
Retaining values of one MIP start for possible repair.
Tried aggregator 3 times.
MIP Presolve eliminated 88324 rows and 19873 columns.
MIP Presolve added 3337 rows and 0 columns.
MIP Presolve modified 24472 coefficients.
Aggregator did 12841 substitutions.
Reduced MIP has 24336 rows, 20744 columns, and 66998 nonzeros.
Reduced MIP has 8198 binaries, 0 generals, 0 SOSs, and 0 indicators.
Presolve time = 0.28 sec. (165.79 ticks)
Probing fixed 416 vars, tightened 5766 bounds.
Probing time = 0.08 sec. (18.64 ticks)
Tried aggregator 2 times.
MIP Presolve eliminated 929 rows and 835 columns.
MIP Presolve modified 2985 coefficients.
Aggregator did 46 substitutions.
Reduced MIP has 23361 rows, 19863 columns, and 64162 nonzeros.
Reduced MIP has 7781 binaries, 0 generals, 0 SOSs, and 0 indicators.
Presolve time = 0.11 sec. (89.44 ticks)
Probing fixed 0 vars, tightened 230 bounds.
Probing time = 0.14 sec. (22.76 ticks)
Clique table members: 42020.
MIP emphasis: balance optimality and feasibility.
MIP search method: dynamic search.
Parallel mode: opportunistic, using up to 32 threads.
Root relaxation solution time = 0.41 sec. (594.30 ticks)

        Nodes                                         Cuts/
   Node  Left     Objective  IInf  Best Integer    Best Bound    ItCnt     Gap

      0     0    76051.5963   181                  76051.5963     5762         
      0     0    75234.5687    70                    Cuts: 89     5829         
      0     0    75196.9562    78                    Cuts: 23     5865         
      0     0    75157.2387    79                    Cuts: 15     5876         
*     0+    0                        46773.0292    75157.2387            60.68%
      0     0    75156.8899    79    46773.0292  Flowcuts: 12     5882   60.68%
      0     0    75156.8899    68    46773.0292      Cuts: 43     5915   60.68%
      0     0    75146.9721    67    46773.0292      Cuts: 65     5951   60.66%
      0     0    75142.4426    67    46773.0292       Cuts: 6     5954   60.65%
Repair heuristic found nothing.
      0    35    66967.0331    27    46773.0292       Cuts: 8     6227   59.08%
Elapsed time = 5.97 sec. (2927.90 ticks, tree = 0.02 MB, solutions = 1)
    551   343    68414.7430    31    46773.0292    74348.2758     8259   58.96%
   1126   628        cutoff          46773.0292    74026.3589    11752   58.27%
   1828   853    56836.0090    25    46773.0292    74026.3589    15162   58.27%
*  2065+  991                        47458.9228    74026.3589            55.98%
   2627  1510    62904.3663    20    49223.5203    73968.6866    20555   50.27%
*  2884  1648      integral     0    50444.9925    73968.6866    21510   46.63%
   3369  1823    50444.9965     5    50444.9925    73319.8156    23615   45.35%
   4335  1864    63322.4128    25    50708.0158    71769.3548    25225   41.53%
*  5126  2178      integral     0    51408.5603    71769.3548    27631   39.61%
   5264  2901    50729.2646    12    51520.8574    71769.3548    31836   39.30%
   5866  2932        cutoff          51520.8574    71769.3548    32306   39.30%
   6036  3301        cutoff          51520.8574    70839.8935    46297   37.50%
   7138    53    54175.4271    19    51520.8574    65225.6105    46951   26.60%
Elapsed time = 31.33 sec. (9712.87 ticks, tree = 0.10 MB, solutions = 17)
   8206   749    55804.4556    20    51520.8574    61536.4758    66814   19.44%
  11076   745        cutoff          51520.8574    53294.0347    77057    3.44%
  12926   266    51575.0881    16    51520.8574    51596.9119    90671    0.15%

Cover cuts applied:  9
Implied bound cuts applied:  9
Flow cuts applied:  54
Mixed integer rounding cuts applied:  4
Zero-half cuts applied:  1
Lift and project cuts applied:  1
Gomory fractional cuts applied:  11

Root node processing (before b&c):
  Real time             =    4.39 sec. (2892.74 ticks)
Parallel b&c, 32 threads:
  Real time             =   37.63 sec. (10063.78 ticks)
  Sync time (average)   =    2.17 sec.
  Wait time (average)   =    0.17 sec.
                          ------------
Total (root+branch&cut) =   42.02 sec. (12956.52 ticks)

Solution pool: 17 solutions saved.

MIP - Integer optimal, tolerance (0.001/1e-06):  Objective =  5.1520857388e+04
Current MIP best bound =  5.1571027588e+04 (gap = 50.1702, 0.10%)
Solution time =   42.06 sec.  Iterations = 91848  Nodes = 13026 (176)
Deterministic time = 12956.67 ticks  (308.03 ticks/sec)

CPLEX> Incumbent solution written to file 'C:\Users\llavin\Desktop\test715\logs\tmpxw_5vs70.cplex.sol'.
CPLEX> Exporting results... 
